10
12 39 53 27
52 70 76 62 22
50 59 74 29 37
44 57 63 45 15
35 48 5 77 18 40
46 3 2 6 68 25
33 4 73 51 38 67 43
1 42 20 65 49 8 69 56
72 54 28 14 60 66 16 17 32 7 71 21 64 36 9 30 58
23 26 75 34 24 55 13 61 19 41 10 11 47 31
